Minimize
  obj: x0 + x1 + x2 + x3 + x4 + x5 + x6 + x7 + x8 + x9 + x10

Subject To
  c0: x2 + x3 + x4 + x7 = 159
  c1: x1 + x2 + x3 + x4 + x6 + x7 + x8 + x9 + x10 = 223
  c2: x0 + x2 + x3 + x4 + x6 + x7 + x8 + x9 + x10 = 228
  c3: x0 + x2 + x3 + x4 + x7 = 172
  c4: x0 + x1 + x2 + x4 + x5 + x7 + x8 + x9 + x10 = 217
  c5: x0 + x3 + x9 + x10 = 44
  c6: x0 + x1 + x3 + x4 = 33
  c7: x0 + x6 + x7 + x10 = 48
  c8: x0 + x3 + x4 + x5 + x7 + x9 + x10 = 69

Bounds
  x0 >= 0
  x1 >= 0
  x2 >= 0
  x3 >= 0
  x4 >= 0
  x5 >= 0
  x6 >= 0
  x7 >= 0
  x8 >= 0
  x9 >= 0
  x10 >= 0

Generals
  x0 x1 x2 x3 x4 x5 x6 x7 x8 x9 x10

End
